c "263160.clq"
p edge 142 552
e 1 5
e 1 6
e 1 7
e 1 8
e 1 10
e 1 14
e 1 18
e 1 19
e 1 24
e 1 38
e 1 39
e 1 40
e 1 51
e 1 56
e 1 75
e 1 78
e 1 80
e 1 88
e 1 94
e 1 137
e 2 5
e 2 6
e 2 7
e 2 8
e 2 9
e 2 13
e 2 15
e 2 16
e 2 18
e 2 22
e 2 27
e 2 29
e 2 32
e 2 45
e 2 49
e 2 56
e 2 59
e 2 64
e 2 70
e 2 73
e 2 89
e 2 97
e 2 99
e 2 101
e 2 128
e 2 132
e 3 5
e 3 6
e 3 15
e 3 26
e 3 44
e 3 49
e 3 51
e 3 103
e 3 120
e 4 5
e 4 9
e 4 14
e 4 17
e 4 19
e 4 21
e 4 22
e 4 30
e 4 43
e 4 83
e 4 90
e 4 103
e 4 124
e 4 136
e 4 138
e 5 6
e 5 7
e 5 8
e 5 10
e 5 11
e 5 13
e 5 14
e 5 18
e 5 23
e 5 24
e 5 26
e 5 29
e 5 36
e 5 38
e 5 39
e 5 43
e 5 44
e 5 50
e 5 64
e 5 69
e 5 79
e 5 88
e 5 97
e 5 111
e 5 112
e 5 121
e 5 134
e 6 7
e 6 8
e 6 9
e 6 10
e 6 17
e 6 21
e 6 23
e 6 25
e 6 34
e 6 46
e 6 50
e 6 53
e 6 57
e 6 132
e 7 9
e 7 11
e 7 12
e 7 13
e 7 15
e 7 19
e 7 21
e 7 23
e 7 25
e 7 28
e 7 29
e 7 30
e 7 33
e 7 39
e 7 42
e 7 47
e 7 48
e 7 51
e 7 63
e 7 72
e 7 76
e 7 81
e 7 82
e 7 83
e 7 88
e 7 91
e 7 94
e 7 95
e 7 105
e 7 116
e 7 122
e 7 123
e 7 125
e 7 127
e 7 129
e 7 142
e 8 10
e 8 11
e 8 17
e 8 30
e 8 46
e 8 74
e 8 77
e 8 81
e 8 82
e 8 92
e 8 98
e 8 117
e 8 118
e 8 136
e 9 12
e 9 13
e 9 16
e 9 22
e 9 23
e 9 31
e 9 67
e 10 11
e 10 12
e 10 32
e 10 57
e 10 68
e 10 80
e 10 102
e 11 12
e 11 33
e 11 35
e 11 40
e 11 50
e 11 55
e 11 82
e 11 89
e 11 102
e 11 106
e 11 113
e 11 117
e 12 16
e 12 20
e 12 32
e 12 37
e 12 44
e 12 48
e 12 53
e 12 55
e 12 58
e 12 65
e 12 66
e 12 96
e 12 99
e 12 109
e 12 142
e 13 14
e 13 19
e 13 27
e 13 35
e 13 41
e 13 47
e 13 56
e 13 63
e 13 75
e 13 87
e 13 90
e 13 93
e 13 105
e 13 106
e 13 109
e 13 113
e 13 114
e 13 122
e 13 126
e 13 131
e 14 15
e 14 20
e 14 27
e 14 28
e 14 30
e 14 31
e 14 49
e 14 58
e 14 73
e 14 80
e 14 86
e 14 106
e 14 112
e 14 114
e 14 136
e 15 16
e 15 17
e 15 18
e 15 20
e 15 21
e 15 26
e 15 28
e 15 29
e 15 34
e 15 36
e 15 47
e 15 52
e 15 54
e 15 58
e 15 66
e 15 80
e 15 82
e 15 83
e 15 86
e 15 87
e 15 88
e 15 110
e 15 120
e 15 131
e 15 132
e 16 38
e 16 71
e 16 98
e 17 37
e 17 41
e 17 134
e 18 25
e 18 27
e 18 34
e 18 56
e 18 59
e 18 61
e 18 84
e 18 104
e 18 105
e 18 115
e 19 20
e 19 24
e 19 33
e 19 39
e 19 46
e 19 53
e 19 67
e 19 69
e 19 133
e 20 22
e 20 103
e 20 124
e 21 37
e 21 38
e 21 52
e 21 102
e 21 130
e 22 24
e 22 42
e 22 61
e 22 70
e 22 92
e 22 116
e 22 139
e 23 28
e 23 60
e 23 62
e 23 65
e 23 83
e 23 120
e 24 25
e 24 69
e 24 71
e 24 95
e 24 114
e 25 26
e 25 31
e 25 49
e 25 52
e 25 54
e 25 55
e 25 67
e 25 96
e 25 131
e 26 32
e 26 34
e 26 48
e 26 77
e 26 79
e 26 97
e 26 109
e 26 110
e 26 121
e 26 133
e 27 35
e 27 50
e 27 57
e 27 58
e 27 61
e 27 64
e 27 70
e 27 79
e 27 123
e 27 130
e 28 36
e 28 41
e 28 104
e 28 109
e 29 31
e 29 37
e 29 40
e 29 51
e 29 70
e 29 76
e 29 111
e 30 60
e 30 97
e 30 141
e 31 33
e 31 62
e 31 64
e 31 65
e 31 66
e 31 100
e 31 104
e 31 121
e 31 133
e 32 41
e 32 45
e 32 74
e 32 93
e 32 94
e 32 129
e 33 35
e 33 117
e 33 118
e 34 45
e 34 52
e 34 60
e 34 107
e 34 108
e 35 36
e 35 42
e 35 59
e 35 62
e 35 113
e 36 46
e 37 59
e 37 60
e 37 74
e 37 105
e 38 45
e 38 71
e 38 111
e 39 40
e 39 43
e 39 44
e 39 47
e 39 57
e 39 78
e 39 85
e 39 106
e 39 113
e 39 134
e 40 42
e 40 43
e 40 95
e 40 108
e 40 128
e 42 54
e 42 67
e 42 69
e 42 74
e 42 85
e 42 86
e 42 119
e 43 48
e 43 78
e 44 81
e 44 84
e 45 53
e 45 55
e 45 89
e 45 99
e 46 63
e 46 94
e 47 72
e 47 124
e 47 126
e 48 65
e 48 84
e 48 91
e 48 135
e 49 130
e 50 66
e 50 73
e 50 79
e 50 131
e 51 54
e 51 101
e 51 108
e 51 127
e 51 140
e 52 61
e 52 73
e 52 111
e 52 135
e 52 140
e 52 142
e 53 90
e 53 126
e 53 136
e 53 140
e 54 63
e 54 77
e 55 86
e 55 90
e 55 98
e 55 112
e 55 116
e 56 81
e 56 84
e 56 116
e 57 99
e 57 107
e 58 62
e 58 110
e 58 141
e 59 68
e 59 77
e 59 91
e 59 139
e 60 68
e 60 100
e 60 112
e 61 71
e 61 96
e 61 100
e 61 118
e 61 129
e 62 76
e 62 87
e 62 135
e 62 138
e 63 100
e 63 115
e 64 96
e 64 133
e 65 85
e 65 92
e 65 132
e 66 68
e 66 78
e 66 119
e 66 128
e 67 72
e 67 103
e 67 107
e 68 76
e 68 92
e 68 93
e 68 117
e 68 119
e 68 121
e 68 122
e 68 141
e 69 75
e 70 72
e 70 102
e 70 120
e 71 75
e 71 87
e 71 89
e 72 134
e 73 115
e 74 98
e 75 85
e 75 139
e 79 138
e 80 101
e 81 125
e 81 130
e 82 91
e 82 95
e 82 119
e 83 125
e 86 114
e 86 127
e 87 123
e 88 115
e 88 126
e 89 124
e 90 93
e 91 104
e 95 122
e 96 101
e 97 127
e 98 108
e 102 110
e 103 137
e 104 137
e 105 138
e 105 141
e 106 107
e 106 135
e 108 128
e 113 118
e 114 123
e 114 125
e 117 140
e 118 129
e 127 137
e 129 139
e 141 142
